data;
param T:= 5;
param c:= 150;
param Maxcoverage = 25; 
param Maxprofit =377; 
param w1 =1; 
param w2 =2; 
param R :=
[*,*]:  	1 	2	3	4	5:=
		1	34 	43 	62 	42 	34 
		2	64 	43 	71 	48 	65 
		3	57 	57 	51 	61 	30 
		4	32 	38 	70 	56 	40 
		5	68 	73 	30 	56 	44;
